#Cohesion model bond (bending test)
log log.liggghts
thermo_log post/thermo.txt

variable    dt    equal 1e-6
variable    nRun  equal round(5.0/${dt})
variable    nDump equal round(1e-2/${dt})
variable    nCreate equal 1 #round(0.05/${dt})

variable    vel   equal 0.5
variable    nMove equal round(0.025/${vel}/${dt})


atom_style	granular
atom_modify	map array
boundary	m m m
newton		off

communicate	single vel yes

units		si

region		reg block -1 1 -0.1 0.1 -0.1 0.1 units box
create_box	1 reg

lattice         sc 0.055

region          insreg block -1 1 -0.025 0.025 -0.025 0.025 units box
create_atoms    1 region insreg
set             group all density 2500 diameter 0.05

region          lsup block -1 -0.95 INF INF INF INF units box
region          rsup block 0.95 1 INF INF INF INF units box
group           lsup region lsup
group           rsup region rsup
group           sup union lsup rsup
fix            supFreeze sup freeze

neighbor	      0.1 bin
neigh_modify	  delay 0

#Material properties required for new pair styles

fix     m1 all property/global youngsModulus peratomtype 5.e6
fix     m2 all property/global poissonsRatio peratomtype 0.45
fix     m3 all property/global coefficientRestitution peratomtypepair 1 1
fix     m4 all property/global coefficientFriction peratomtypepair 1 0.5 

fix     m5 all property/global radiusMultiplierBond peratomtypepair 1 1
fix     m6 all property/global normalBondStiffnessPerUnitArea peratomtypepair 1 1e8
fix     m7 all property/global tangentialBondStiffnessPerUnitArea peratomtypepair 1 1e7
fix     m8 all property/global maxDistanceBond peratomtypepair 1 0.25

fix     m9 all property/global dampingNormalForceBond peratomtypepair 1 0. #0.5
fix     m10 all property/global dampingTangentialForceBond peratomtypepair 1 0. #0.5
fix     m11 all property/global dampingNormalTorqueBond peratomtypepair 1 0. #0.5
fix     m12 all property/global dampingTangentialTorqueBond peratomtypepair 1 0. #0.5

fix     m13 all property/global tsCreateBond scalar ${nCreate}
fix     m14 all property/global createDistanceBond peratomtypepair 1 0.07

#New pair style
pair_style      gran model hertz tangential history cohesion bond
#normalstress off shearstress off bending off torsion off
pair_coeff	* *

timestep	${dt}



# no gravity
#fix		gravi all gravity 9.81 vector 0.0 0.0 -1.0

#apply nve integration to all particles that are inserted as single particles
fix		integr all nve/sphere

# mesh
fix  cad all mesh/surface file meshes/unit_plate.stl type 1 scale 0.05 move 0.001 0. -0.027
fix  wall all wall/gran model hertz tangential history mesh n_meshes 1 meshes cad

#output settings, include total thermal energy
fix             ts all check/timestep/gran ${nDump} 0.1 0.1
compute         rke all erotate/sphere
thermo_style	custom step atoms ke c_rke f_ts[1] f_ts[2] vol
thermo          ${nDump}
thermo_modify	lost ignore norm no
compute         cmpbond all  pair/gran/local/bond

#insert the first particles so that dump is not empty
run		1
dump		dmp all custom/vtk ${nDump} post/dump*.vtk id type type x y z ix iy iz vx vy vz fx fy fz omegax omegay omegaz radius
dump		dmp2 all local/gran/vtk ${nDump} post/bonddump*.vtk cmpbond
dump            dmp3 all local ${nDump} post/txtbonddump*.local c_cmpbond[1]  c_cmpbond[1]  c_cmpbond[3]
dump            dmp4 all mesh/stl ${nDump} post/plate_*.stl cad

run  ${nDump} upto

region          mid block -0.025 0.025 INF INF INF INF units box
#set             region mid omegax 1e-4
#set             region mid vz 1e-16
fix             move all move/mesh mesh cad linear 0. 0. ${vel}
run     ${nMove}
unfix           move
unfix           wall
#fix             move all move/mesh mesh cad linear 0. 0. -${vel}
#run     ${nMove}
#unfix           move

#run
run		${nRun} upto
