#Multisphere

atom_style	sphere
atom_modify	map array sort 0 0
boundary	f f f
newton		off

communicate	single vel yes

units		si

region		reg block -0.3 0.3 -0.3 0.3 0. 0.4 units box
create_box	1 reg

neighbor	0.004 bin
neigh_modify	delay 0

#Material properties required for new pair styles

fix 		m1 all property/global youngsModulus peratomtype 1.e7
fix 		m2 all property/global poissonsRatio peratomtype 0.45
fix 		m3 all property/global coefficientRestitution peratomtypepair 1 0.06
fix 		m4 all property/global coefficientFriction peratomtypepair 1 0.5
fix 		m5 all property/global characteristicVelocity scalar 2.
fix 		m6 all property/global cohesionEnergyDensity peratomtypepair 1 350

#New pair style
pair_style gran model hertz tangential history #Hertzian without cohesion
pair_coeff	* *

timestep	0.00001

#fix		gravi all gravity 9.81 vector 0.0 0.0 -1.0

#distributions for insertion
fix pts1 all particletemplate/multisphere 999667 atom_type 1 density constant 2500 nspheres 3 ntry 1000000 spheres file data/particle3.txt scale 10. type 1
fix pdd1 all particledistribution/discrete 999671 1 pts1 1.0

#region and insertion
region		bc cylinder z 0.0 0.0 0.25 0.18 0.25 units box

fix		ins_mesh1 all mesh/surface file meshes/insert.stl type 1 move 0. 0. +0.05
fix		ins_mesh2 all mesh/surface file meshes/insert.stl type 1 move 0. 0. -0.05

fix ins1 all insert/stream seed 999683 distributiontemplate pdd1 nparticles 1 &
		vel constant 0. 0. -1. particlerate 100 &
		overlapcheck yes insertion_face ins_mesh1 extrude_length 0.1

fix ins2 all insert/stream seed 999721 distributiontemplate pdd1 nparticles 1 &
		vel constant 0. 0. +1. particlerate 100 &
		overlapcheck yes insertion_face ins_mesh2 extrude_length 0.1

#integrator for multisphere rigid bodies
fix     ms all multisphere
fix     integr all nve/nonspherical

#compute energies
compute     ke all ke/multisphere
compute     rke all erotate/multisphere

#Compute forces:
compute		local all pair/gran/local vel id ms_id

#output settings, include total thermal energy
compute		1 all erotate/sphere
fix		ts all check/timestep/gran 1000 0.1 0.1
thermo_style	custom step atoms c_ke c_rke f_ts[1] f_ts[2] vol
thermo		1000
thermo_modify	lost ignore norm no

#compute rigid body properties
compute		xcm all rigid property xcm
compute		quat all rigid property quat
compute		id all rigid property id_multisphere


#insert the first particles so that dump is not empty
run		1
dump		dmpQuat all local 200 post/dump.*.clumps c_xcm[1] c_xcm[2] c_xcm[3] c_quat[1] c_quat[2] c_quat[3] c_quat[4] c_id
dump		dmp all custom/vtk 200 post/dump*.vtk id type mol x y z ix iy iz vx vy vz fx fy fz omegax omegay omegaz radius
dump	    	dmp2 all local 1000 post/dump*.local c_local[1] c_local[2] c_local[3] c_local[4] c_local[5] c_local[5] c_local[6] c_local[7] c_local[8] c_local[9] c_local[10] c_local[11]

#insert particles
run		20000 upto
