atom_style	granular
atom_modify	map array
boundary	m m m
newton		off

communicate	single vel yes
#processors	2 1 1

units		si

region		reg block -1 1 -1 1 -0.05 2.85 units box
create_box	1 reg

neighbor	0.01 bin
neigh_modify	delay 0


#Material properties required for new pair styles

fix 		m1 all property/global youngsModulus peratomtype 5.e6
fix 		m2 all property/global poissonsRatio peratomtype 0.45
fix 		m3 all property/global coefficientRestitution peratomtypepair 1 0.9
fix 		m4 all property/global coefficientFriction peratomtypepair 1 0.05
fix 		m5 all property/global characteristicVelocity scalar 2.

#New pair style
pair_style gran model hertz tangential history #Hertzian without cohesion
pair_coeff	* *

timestep	0.00001

#particle distributions
fix pts1 all particletemplate/sphere 999667 atom_type 1 density constant 2500 radius constant 0.015
fix pts2 all particletemplate/sphere 999671 atom_type 1 density constant 2500 radius constant 0.025
fix pdd1 all particledistribution/discrete 999683 2 pts1 0.3 pts2 0.7

#region and insertion
fix		ins_mesh all mesh/surface file meshes/face.stl type 1 scale 0.005
group	nve_group region reg
fix ins nve_group insert/stream seed 999721 distributiontemplate pdd1 nparticles 5000 &
		vel constant 0. -0.5 -2. particlerate 1000 &
		overlapcheck yes insertion_face ins_mesh extrude_length 0.6

#apply nve integration to all particles that are inserted as single particles
fix		integr nve_group nve/sphere

#residence time

variable	markstep equal 20000
variable	s equal step
region		mark  block -1 1 -1 1 2.0 2.1 units box
region		count block -1 1 -1 1 0.0 1.1 units box
fix			tracer all property/atom/tracer/stream mark_step ${markstep} insert_stream ins n_tracer 50 every once 
compute 	nparticles all nparticles/tracer/region  region_count count  tracer tracer
variable	nmarked equal f_tracer
variable 	ncounted equal c_nparticles[2]
fix 		pr all print 1000 "$s ${nmarked} ${ncounted} " screen no file post/data.txt #title "step nmarked ncounted"

#output settings, include total thermal energy
compute			rke all erotate/sphere
thermo_style	custom step atoms ke c_rke vol
thermo			1000
thermo_modify	lost ignore norm no

#insert the first particles so that dump is not empty
dump		dmp all custom 800 post/dump*.residence id type type x y z ix iy iz vx vy vz fx fy fz omegax omegay omegaz radius f_tracer f_release_fix_insert_stream[5]

#insert particles
run			40000
write_restart post/restart/restart.liggghts

