#Test weight of particles (10.52 N) vs. force on mesh evaluated

atom_style	sphere
atom_modify	map array
boundary	m m m
newton		off

communicate	single vel yes
#processors 2 1 1

units		si

region		reg block -0.05 0.05 -0.05 0.05 0. 0.15 units box
create_box	1 reg

neighbor	0.002 bin
neigh_modify	delay 0

#Material properties required for new pair styles

fix 		m1 all property/global youngsModulus peratomtype 5.e6
fix 		m2 all property/global poissonsRatio peratomtype 0.45
fix 		m3 all property/global coefficientRestitution peratomtypepair 1 0.95
fix 		m4 all property/global coefficientFriction peratomtypepair 1 0.05
#fix 		m5 all property/global characteristicVelocity scalar 2.


#New pair style
pair_style gran model hertz tangential history #hertz hooke   Hertzian without cohesion
pair_coeff	* *

timestep	0.000025

fix		gravi all gravity 9.81 vector 0.0 0.0 -1.0

fix cylwalls all wall/gran model hertz tangential history primitive type 1 zcylinder 0.05 0. 0.
fix		cad all mesh/surface/stress file meshes/plate.stl type 1 
fix mesh all wall/gran model hertz tangential history mesh   n_meshes 1   meshes cad

#region of insertion
region		bc cylinder z 0. 0. 0.045 0.05 0.145 units box
group		nve_group region reg

#particle distributions
fix pts1 all particletemplate/sphere 999667 atom_type 1 density constant 8000 radius constant 0.004
fix pdd1 all particledistribution/discrete 999671 1 pts1 1.0

fix ins nve_group insert/pack seed 999683 distributiontemplate pdd1 vel constant 0. 0. -0.3 &
				insert_every once overlapcheck yes all_in yes particles_in_region 500 region bc

#apply nve integration to all particles that are inserted as single particles
fix		integr nve_group nve/sphere

#output settings, include total thermal energy
compute		1 all erotate/sphere
thermo_style	custom step atoms ke c_1 vol
thermo		1000
thermo_modify	lost ignore norm no

fix 		baseforce all ave/time 50 2 100 f_cad[1] f_cad[2] f_cad[3] file post/baseforce.txt

#insert the first particles so that dump is not empty
run		1
dump		dmp all custom 800 post/dump*.meshforce id type type x y z ix iy iz vx vy vz fx fy fz omegax omegay omegaz radius
dump		dmp2 all mesh/vtk 800 post/dumpmesh*.vtk id stress stresscomponents

#run more timesteps to insert large particles
run		10000 upto
unfix		ins

#let the particles settle
run		40000 upto

